bacp/01/params/inst-57-1-2050821110.param
language Essence 1.3
$ generated by bacp-gen.pl with seed 2050821110
$ edge probability 0.3458
$ course loads in range 2..6
letting n_courses be 62
letting n_periods be 30
letting load_per_period_lb be 7
letting load_per_period_ub be 42
letting courses_per_period_lb be 2
letting courses_per_period_ub be 8
letting course_load be function(
1 --> 3,
2 --> 2,
3 --> 3,
4 --> 5,
5 --> 2,
6 --> 4,
7 --> 5,
8 --> 2,
9 --> 5,
10 --> 5,
11 --> 5,
12 --> 4,
13 --> 5,
14 --> 6,
15 --> 5,
16 --> 4,
17 --> 6,
18 --> 2,
19 --> 4,
20 --> 4,
21 --> 4,
22 --> 2,
23 --> 3,
24 --> 2,
25 --> 5,
26 --> 4,
27 --> 3,
28 --> 5,
29 --> 2,
30 --> 6,
31 --> 5,
32 --> 5,
33 --> 3,
34 --> 2,
35 --> 2,
36 --> 5,
37 --> 5,
38 --> 5,
39 --> 4,
40 --> 3,
41 --> 2,
42 --> 6,
43 --> 5,
44 --> 4,
45 --> 5,
46 --> 2,
47 --> 4,
48 --> 6,
49 --> 2,
50 --> 3,
51 --> 4,
52 --> 5,
53 --> 2,
54 --> 2,
55 --> 4,
56 --> 6,
57 --> 2,
58 --> 4,
59 --> 5,
60 --> 5,
61 --> 2,
62 --> 6
)
letting prerequisite be relation (
(8,15),
(7,16),
(2,17),
(13,18),
(8,19),
(2,20),
(7,21),
(13,22),
(9,23),
(10,24),
(4,25),
(14,26),
(8,27),
(1,28),
(7,29),
(1,30),
(11,31),
(14,32),
(2,33),
(2,34),
(13,35),
(4,36),
(5,37),
(6,38),
(14,39),
(3,40),
(6,41),
(5,42),
(3,43),
(10,44),
(28,45),
(37,46),
(17,47),
(30,48),
(19,49),
(33,50),
(35,51),
(43,52),
(24,53),
(40,54),
(27,55),
(40,56),
(37,57),
(18,58),
(34,59),
(22,60),
(29,61),
(20,62),
(42,48),
(12,41),
(3,20),
(12,23),
(22,62),
(7,43),
(9,39),
(36,60),
(43,57),
(7,17),
(1,36),
(7,39),
(2,21),
(19,55),
(4,39),
(4,43),
(26,45),
(41,62),
(16,59),
(13,36),
(13,28),
(21,48),
(15,49),
(41,47),
(6,20),
(6,35),
(15,47),
(21,56),
(15,50),
(9,43),
(13,17),
(33,60),
(32,61),
(30,57),
(14,29),
(44,45),
(33,45),
(9,17),
(13,32),
(29,54),
(21,46),
(3,18),
(9,33),
(4,34),
(28,60),
(33,56),
(12,43),
(30,54),
(26,51),
(39,57),
(30,45),
(41,48),
(11,20),
(13,38),
(41,46),
(6,23),
(15,45),
(38,56),
(32,51),
(11,26),
(21,59),
(11,40),
(26,47),
(16,48),
(33,47),
(43,59),
(22,59),
(43,48),
(8,41),
(6,36),
(31,59),
(14,27),
(11,35),
(44,50),
(25,58),
(14,19),
(29,45),
(38,48),
(38,51),
(3,22),
(25,51),
(21,61),
(1,18),
(6,34),
(14,31),
(23,54),
(27,47),
(39,59),
(14,37),
(9,32),
(14,23),
(10,22),
(14,22),
(22,48),
(11,34),
(6,32),
(1,35),
(27,51),
(12,29),
(1,37),
(35,54),
(17,59),
(36,47),
(28,55),
(36,55),
(12,33),
(36,49),
(18,53),
(2,44),
(43,55),
(15,53),
(10,37),
(20,58),
(44,55),
(15,54),
(14,18),
(10,29),
(6,19),
(34,58),
(31,61),
(3,24),
(2,42),
(12,34),
(4,26),
(10,36),
(39,60),
(16,57),
(39,62),
(19,48),
(8,18),
(3,36),
(4,27),
(13,31),
(35,50),
(37,50),
(30,61),
(4,21),
(27,48),
(17,56),
(5,30),
(34,62),
(18,56),
(15,62),
(7,36),
(36,46),
(12,28),
(2,23),
(3,38),
(4,44),
(40,61),
(1,39),
(10,39),
(7,25),
(28,50),
(39,50),
(26,55),
(15,51),
(14,44),
(3,28),
(24,61),
(40,49),
(31,56),
(13,33),
(22,47),
(5,21),
(4,42),
(44,54),
(3,19),
(7,28),
(12,26),
(13,27),
(2,35),
(32,45),
(20,46),
(29,56),
(6,18),
(12,22),
(19,50),
(12,36),
(18,55),
(40,45),
(33,59),
(27,53),
(14,28),
(12,24),
(4,41),
(26,60),
(7,19),
(28,58),
(27,49),
(13,29),
(11,19),
(22,54),
(9,21),
(25,46),
(31,58),
(41,55),
(42,60),
(10,30),
(4,35),
(19,45),
(28,59),
(16,60),
(35,57),
(29,46),
(4,30),
(30,46),
(3,44),
(18,59),
(42,45),
(1,40),
(2,37),
(14,43),
(38,55),
(3,27),
(22,49),
(14,38),
(39,51),
(15,56),
(15,58),
(37,47),
(8,23),
(13,40),
(27,50),
(11,32),
(11,38),
(5,24),
(4,33),
(1,26),
(4,23),
(12,42),
(2,19),
(3,17),
(20,45),
(25,57),
(3,29),
(25,60),
(42,58),
(30,49),
(34,57),
(17,61),
(39,55),
(44,60),
(21,52),
(24,52),
(6,31),
(10,19),
(8,34),
(44,56),
(7,33),
(29,59),
(14,16),
(11,28),
(14,21),
(16,56),
(43,56),
(39,56),
(8,38),
(9,30),
(2,29),
(9,26),
(37,51),
(35,58),
(40,52),
(8,22),
(8,25),
(35,56),
(19,47),
(5,34),
(34,47),
(35,48),
(22,61),
(2,26),
(25,48),
(37,52),
(23,47),
(2,41),
(7,26),
(6,24),
(6,17),
(27,60),
(4,40),
(14,33)
)

