bacp/param_dec/inst-57-1-2050821110.eprime-param
language ESSENCE' 1.0

letting n_courses be 62
letting n_periods be 30
letting prerequisite_RelationAsSet_Explicit_1 be
        [1, 1, 1, 1, 1, 1, 1, 1, 1, 2, 2, 2, 2, 2, 2, 2, 2, 2, 2, 2, 2, 2, 2, 3, 3, 3, 3, 3, 3, 3, 3, 3, 3, 3, 3, 3, 3,
         4, 4, 4, 4, 4, 4, 4, 4, 4, 4, 4, 4, 4, 4, 4, 4, 5, 5, 5, 5, 5, 5, 6, 6, 6, 6, 6, 6, 6, 6, 6, 6, 6, 6, 6, 7, 7,
         7, 7, 7, 7, 7, 7, 7, 7, 7, 7, 8, 8, 8, 8, 8, 8, 8, 8, 8, 8, 9, 9, 9, 9, 9, 9, 9, 9, 9, 10, 10, 10, 10, 10, 10,
         10, 10, 10, 11, 11, 11, 11, 11, 11, 11, 11, 11, 11, 12, 12, 12, 12, 12, 12, 12, 12, 12, 12, 12, 12, 13, 13, 13,
         13, 13, 13, 13, 13, 13, 13, 13, 13, 13, 14, 14, 14, 14, 14, 14, 14, 14, 14, 14, 14, 14, 14, 14, 14, 14, 14, 14,
         15, 15, 15, 15, 15, 15, 15, 15, 15, 15, 16, 16, 16, 16, 16, 17, 17, 17, 17, 18, 18, 18, 18, 18, 19, 19, 19, 19,
         19, 19, 20, 20, 20, 20, 21, 21, 21, 21, 21, 21, 22, 22, 22, 22, 22, 22, 22, 22, 23, 23, 24, 24, 24, 25, 25, 25,
         25, 25, 25, 26, 26, 26, 26, 26, 27, 27, 27, 27, 27, 27, 27, 27, 28, 28, 28, 28, 28, 28, 29, 29, 29, 29, 29, 29,
         30, 30, 30, 30, 30, 30, 30, 31, 31, 31, 31, 32, 32, 32, 33, 33, 33, 33, 33, 33, 34, 34, 34, 34, 34, 35, 35, 35,
         35, 35, 35, 35, 36, 36, 36, 36, 36, 37, 37, 37, 37, 37, 37, 38, 38, 38, 38, 39, 39, 39, 39, 39, 39, 39, 39, 40,
         40, 40, 40, 40, 40, 41, 41, 41, 41, 41, 42, 42, 42, 42, 43, 43, 43, 43, 43, 43, 44, 44, 44, 44, 44, 44;
             int(1..331)]
letting prerequisite_RelationAsSet_Explicit_2 be
        [18, 26, 28, 30, 35, 36, 37, 39, 40, 17, 19, 20, 21, 23, 26, 29, 33, 34, 35, 37, 41, 42, 44, 17, 18, 19, 20, 22,
         24, 27, 28, 29, 36, 38, 40, 43, 44, 21, 23, 25, 26, 27, 30, 33, 34, 35, 36, 39, 40, 41, 42, 43, 44, 21, 24, 30,
         34, 37, 42, 17, 18, 19, 20, 23, 24, 31, 32, 34, 35, 36, 38, 41, 16, 17, 19, 21, 25, 26, 28, 29, 33, 36, 39, 43,
         15, 18, 19, 22, 23, 25, 27, 34, 38, 41, 17, 21, 23, 26, 30, 32, 33, 39, 43, 19, 22, 24, 29, 30, 36, 37, 39, 44,
         19, 20, 26, 28, 31, 32, 34, 35, 38, 40, 22, 23, 24, 26, 28, 29, 33, 34, 36, 41, 42, 43, 17, 18, 22, 27, 28, 29,
         31, 32, 33, 35, 36, 38, 40, 16, 18, 19, 21, 22, 23, 26, 27, 28, 29, 31, 32, 33, 37, 38, 39, 43, 44, 45, 47, 49,
         50, 51, 53, 54, 56, 58, 62, 48, 56, 57, 59, 60, 47, 56, 59, 61, 53, 55, 56, 58, 59, 45, 47, 48, 49, 50, 55, 45,
         46, 58, 62, 46, 48, 52, 56, 59, 61, 47, 48, 49, 54, 59, 60, 61, 62, 47, 54, 52, 53, 61, 46, 48, 51, 57, 58, 60,
         45, 47, 51, 55, 60, 47, 48, 49, 50, 51, 53, 55, 60, 45, 50, 55, 58, 59, 60, 45, 46, 54, 56, 59, 61, 45, 46, 48,
         49, 54, 57, 61, 56, 58, 59, 61, 45, 51, 61, 45, 47, 50, 56, 59, 60, 47, 57, 58, 59, 62, 48, 50, 51, 54, 56, 57,
         58, 46, 47, 49, 55, 60, 46, 47, 50, 51, 52, 57, 48, 51, 55, 56, 50, 51, 55, 56, 57, 59, 60, 62, 45, 49, 52, 54,
         56, 61, 46, 47, 48, 55, 62, 45, 48, 58, 60, 48, 52, 55, 56, 57, 59, 45, 50, 54, 55, 56, 60;
             int(1..331)]
letting course_load_Function1D be
        [3, 2, 3, 5, 2, 4, 5, 2, 5, 5, 5, 4, 5, 6, 5, 4, 6, 2, 4, 4, 4, 2, 3, 2, 5, 4, 3, 5, 2, 6, 5, 5, 3, 2, 2, 5, 5,
         5, 4, 3, 2, 6, 5, 4, 5, 2, 4, 6, 2, 3, 4, 5, 2, 2, 4, 6, 2, 4, 5, 5, 2, 6;
             int(1..62)]
letting load_per_period_ub be 42
letting load_per_period_lb be 7
letting courses_per_period_ub be 8
letting courses_per_period_lb be 2
letting fin1 be 331
letting fin2 be 62
letting fin3 be 6
